158743
54,64,97,41,18,67,98,99,34,74,31,6,52,83,35,66,40,10,103,37,104,77,95,59,90,78,42,101,73,25,13,46,60,102,3,14,23,57,27,26,9,58,65,43,86,0,75,88,79,56,8,105,96,7,91,22,11,92,82,33,49,44,20,16,89,63,15,19,55,39,87,68,5,76,45,85,24,61,21,1,71,81,32,72,47,84,38,48,36,70,53,94,100,2,93,69,17,62,50,80,12,30,51,4,29,28,54